93384 100 1100 30 173 117 154 76 149 163 170 122 157 82 106 59 134 49 176 111 108 177 141 59 108 148 156 104 37 77 111 23 133 112 34 151 179 44 146 68 133 157 97 169 105 141 166 96 165 125 146 132 154 60 136 81 109 42 111 138 135 179 65 85 137 165 82 33 168 94 22 75 55 163 54 118 93 50 34 29 90 71 28 135 163 155 19 80 115 62 16 95 21 82 179 167 132 41 142 162 40 179 125 73 289 205 261 143 254 275 285 213 266 151 188 117 231 101 295 196 191 296 242 117 190 251 264 185 83 144 196 62 228 198 79 257 298 94 250 131 229 265 174 284 187 241 279 173 278 217 249 228 260 118 233 151 193 91 196 236 233 299 126 157 235 277 151 77 283 170 61 142 111 275 110 207 169 103 80 72 164 135 71 232 275 263 56 149 201 121 51 172 60 151 299 280 227 90 242 273 89 298 217
